16 32
1 2 4
1 5 4
2 3 3
2 6 4
3 4 5
3 7 5
4 8 4
5 6 4
5 9 4
6 7 1
6 10 2
7 8 4
7 11 1
8 12 4
9 10 1
9 13 1
10 11 2
10 14 2
11 12 5
11 15 3
12 16 2
13 14 3
14 15 3
15 16 4
1 13 4
2 14 4
3 15 4
4 16 3
1 4 1
5 8 1
9 12 4
13 16 5
